20	5
0	3	1	3	2
1	1	12
2	1	4
3	2	11	6
4	1	20
5	2	14	18
6	1	13
7	2	16	14
8	0
9	2	18	20
10	0
11	3	4	9	15
12	2	14	8
13	1	17
14	0
15	2	20	10
16	1	19
17	1	9
18	1	21
19	1	21
20	1	21
21	0
0	0	0	0	0	0	0
1	5	0	0	5	2	3
2	8	1	2	0	3	4
3	1	0	0	0	0	4
4	8	0	1	0	2	2
5	1	4	0	5	0	0
6	2	0	0	2	0	3
7	10	4	2	5	3	4
8	7	0	0	0	1	0
9	7	3	0	2	2	4
10	8	2	2	1	5	0
11	4	0	0	0	2	0
12	6	1	0	3	2	0
13	5	0	0	0	3	3
14	10	2	5	5	0	2
15	1	0	0	4	0	4
16	6	0	4	0	0	0
17	3	0	5	0	0	0
18	2	1	0	0	5	5
19	5	0	1	0	0	2
20	9	3	0	0	0	1
21	0	0	0	0	0	0
4	5	6	6	7
